============================[ Problem Statistics ]=============================|                                                                             ||  Number of variables:          4242                                         ||  Number of clauses:            9661                                         ||  Parse time:                   0.07 s                                       ||                                                                             |============================[ Search Statistics ]==============================| Conflicts |          ORIGINAL         |          LEARNT          | Progress ||           |    Vars  Clauses Literals |    Limit  Clauses Lit/Cl |          |==============================================================================================================================================================restarts              : 1conflicts             : 42             (447 /sec)decisions             : 127            (0.00 % random) (1351 /sec)propagations          : 8105           (86223 /sec)conflict literals     : 1674           (95.80 % deleted)CPU time              : 0.094 sSATISFIABLE